c Reduced graph for p34 generated by Cyril Grelier
p edge 74 421
e 1 3
e 1 11
e 1 15
e 1 32
e 1 35
e 1 51
e 1 56
e 1 61
e 1 70
e 2 3
e 2 10
e 2 17
e 2 29
e 2 30
e 2 31
e 2 36
e 2 37
e 2 43
e 2 68
e 2 69
e 3 11
e 3 17
e 3 31
e 3 35
e 3 36
e 3 37
e 3 51
e 4 10
e 4 19
e 4 20
e 4 37
e 4 45
e 4 50
e 4 53
e 4 56
e 4 60
e 4 63
e 5 6
e 5 9
e 5 16
e 5 31
e 5 57
e 5 74
e 6 16
e 6 24
e 6 27
e 6 49
e 6 55
e 6 65
e 7 8
e 7 14
e 7 16
e 7 17
e 7 20
e 7 24
e 7 29
e 7 42
e 7 47
e 7 57
e 7 58
e 7 62
e 7 64
e 8 12
e 8 14
e 8 16
e 8 17
e 8 25
e 8 41
e 8 42
e 8 47
e 8 51
e 8 58
e 8 62
e 8 64
e 9 27
e 9 31
e 9 38
e 9 46
e 9 57
e 9 58
e 9 59
e 9 66
e 9 68
e 9 74
e 10 19
e 10 29
e 10 30
e 10 43
e 10 50
e 10 53
e 10 68
e 10 69
e 11 30
e 11 35
e 11 47
e 11 51
e 11 52
e 12 25
e 12 32
e 12 38
e 12 41
e 12 51
e 12 52
e 12 67
e 13 15
e 13 18
e 13 19
e 13 21
e 13 23
e 13 33
e 13 34
e 13 36
e 13 59
e 13 60
e 13 64
e 13 74
e 14 16
e 14 17
e 14 39
e 14 42
e 14 47
e 14 48
e 14 49
e 14 58
e 14 62
e 14 64
e 14 69
e 14 71
e 15 19
e 15 21
e 15 32
e 15 34
e 15 36
e 15 56
e 15 59
e 15 61
e 15 70
e 16 17
e 16 42
e 16 47
e 16 58
e 16 62
e 16 64
e 17 31
e 17 36
e 17 37
e 17 42
e 17 47
e 17 58
e 17 62
e 17 64
e 18 22
e 18 23
e 18 33
e 18 39
e 18 53
e 18 54
e 18 60
e 18 64
e 18 66
e 18 74
e 19 21
e 19 34
e 19 36
e 19 50
e 19 53
e 19 59
e 20 24
e 20 29
e 20 37
e 20 45
e 20 56
e 20 57
e 20 60
e 20 63
e 21 28
e 21 34
e 21 35
e 21 36
e 21 40
e 21 43
e 21 54
e 21 55
e 21 59
e 21 62
e 21 63
e 21 73
e 22 26
e 22 34
e 22 39
e 22 42
e 22 44
e 22 45
e 22 53
e 22 54
e 22 65
e 22 66
e 22 67
e 22 72
e 23 33
e 23 41
e 23 44
e 23 46
e 23 48
e 23 60
e 23 64
e 23 70
e 23 73
e 23 74
e 24 27
e 24 29
e 24 49
e 24 55
e 24 57
e 24 65
e 25 28
e 25 41
e 25 51
e 25 72
e 26 33
e 26 34
e 26 40
e 26 42
e 26 44
e 26 45
e 26 50
e 26 61
e 26 65
e 26 67
e 26 71
e 26 72
e 27 38
e 27 46
e 27 49
e 27 55
e 27 58
e 27 59
e 27 65
e 27 66
e 27 68
e 28 35
e 28 40
e 28 43
e 28 54
e 28 55
e 28 62
e 28 63
e 28 72
e 28 73
e 29 30
e 29 43
e 29 57
e 29 68
e 29 69
e 30 43
e 30 47
e 30 52
e 30 68
e 30 69
e 31 36
e 31 37
e 31 57
e 31 74
e 32 38
e 32 52
e 32 56
e 32 61
e 32 67
e 32 70
e 33 40
e 33 50
e 33 60
e 33 61
e 33 64
e 33 71
e 33 74
e 34 36
e 34 42
e 34 44
e 34 45
e 34 59
e 34 65
e 34 67
e 34 72
e 35 40
e 35 43
e 35 51
e 35 54
e 35 55
e 35 62
e 35 63
e 35 73
e 36 37
e 36 59
e 37 45
e 37 56
e 37 60
e 37 63
e 38 46
e 38 52
e 38 58
e 38 59
e 38 66
e 38 67
e 38 68
e 39 48
e 39 49
e 39 53
e 39 54
e 39 66
e 39 69
e 39 71
e 40 43
e 40 50
e 40 54
e 40 55
e 40 61
e 40 62
e 40 63
e 40 71
e 40 73
e 41 44
e 41 46
e 41 48
e 41 51
e 41 70
e 41 73
e 42 44
e 42 45
e 42 47
e 42 58
e 42 62
e 42 64
e 42 65
e 42 67
e 42 72
e 43 54
e 43 55
e 43 62
e 43 63
e 43 68
e 43 69
e 43 73
e 44 45
e 44 46
e 44 48
e 44 65
e 44 67
e 44 70
e 44 72
e 44 73
e 45 56
e 45 60
e 45 63
e 45 65
e 45 67
e 45 72
e 46 48
e 46 58
e 46 59
e 46 66
e 46 68
e 46 70
e 46 73
e 47 52
e 47 58
e 47 62
e 47 64
e 48 49
e 48 69
e 48 70
e 48 71
e 48 73
e 49 55
e 49 65
e 49 69
e 49 71
e 50 53
e 50 61
e 50 71
e 52 67
e 53 54
e 53 66
e 54 55
e 54 62
e 54 63
e 54 66
e 54 73
e 55 62
e 55 63
e 55 65
e 55 73
e 56 60
e 56 61
e 56 63
e 56 70
e 57 74
e 58 59
e 58 62
e 58 64
e 58 66
e 58 68
e 59 66
e 59 68
e 60 63
e 60 64
e 60 74
e 61 70
e 61 71
e 62 63
e 62 64
e 62 73
e 63 73
e 64 74
e 65 67
e 65 72
e 66 68
e 67 72
e 68 69
e 69 71
e 70 73
